p cnf 27 30
1 2 3 4 5 6 7 8 9 0
10 11 12 13 14 15 16 17 18 0
19 20 21 22 23 24 25 26 27 0
-1 -10 -19 0
-1 -11 -20 0
-1 -12 -21 0
-2 -10 -22 0
-2 -11 -23 0
-2 -12 -24 0
-3 -10 -25 0
-3 -11 -26 0
-3 -12 -27 0
-4 -13 -19 0
-4 -14 -20 0
-4 -15 -21 0
-5 -13 -22 0
-5 -14 -23 0
-5 -15 -24 0
-6 -13 -25 0
-6 -14 -26 0
-6 -15 -27 0
-7 -16 -19 0
-7 -17 -20 0
-7 -18 -21 0
-8 -16 -22 0
-8 -17 -23 0
-8 -18 -24 0
-9 -16 -25 0
-9 -17 -26 0
-9 -18 -27 0
